row=9;
column=9;

Board=[|6,5,3,0,0,8,0,0,7|0,0,2,0,0,5,1,3,9|1,9,0,0,0,7,0,0,6|0,1,0,3,7,4,0,0,0|0,0,0,0,1,0,4,0,0|0,0,7,8,5,6,9,0,3|0,2,0,0,0,3,0,9,8|7,8,0,0,0,1,0,5,4|0,0,0,0,0,0,0,0,0|];
OE=[|0,1,1,1,1,0,0,0,1|0,1,0,0,0,1,1,1,1|1,1,0,0,1,1,1,0,0|1,1,1,1,1,0,0,0,0|1,0,0,1,1,0,0,1,1|0,0,1,0,1,0,1,1,1|1,0,1,1,0,1,0,1,0|1,0,1,0,0,1,1,1,0|0,1,0,1,0,1,1,0,1|];
